c --- [ banner ] -------------------------------------------------------------
c 
c CaDiCaL SAT Solver
c Copyright (c) 2016-2023 A. Biere, M. Fleury, N. Froleyks, K. Fazekas, F. Pollitt
c 
c Version 1.9.5
c g++ (Ubuntu 11.4.0-1ubuntu1~22.04) 11.4.0 -Wall -Wextra -O3 -DNDEBUG -static
c Thu Mar 7 06:16:21 CET 2024 Linux pc101447 6.5.0-17-generic x86_64
c 
c --- [ limit ] --------------------------------------------------------------
c 
c setting time limit to 3600 seconds real time (due to '-t 3600')
c 
c --- [ parsing input ] ------------------------------------------------------
c 
c reading DIMACS file from '/home/oliveras/SAT-comp-2023//71758ed7637888d4fd4593ec820677bc-SCPC-800-42.cnf'
c opening file to read '/home/oliveras/SAT-comp-2023//71758ed7637888d4fd4593ec820677bc-SCPC-800-42.cnf'
c found 'p cnf 800 33552' header
c parsed 33552 clauses in 0.02 seconds process time
c 
c --- [ options ] ------------------------------------------------------------
c 
c   --seed=1                       (different from default '0')
c 
c --- [ solving ] ------------------------------------------------------------
c 
c time measured in process time since initialization
c 
c  seconds  reductions  redundant  irredundant
c         MB    restarts       trail     variables
c          level   conflicts       glue      remaining
c 
c *  0.02  5  0 0   0    0    0  0% 0 33552 800 100%
c {  0.03  5  0 0   0    0    0  0% 0 33552 800 100%
c -  0.05  5 22 1   2  303  213 91% 19 33552 800 100%
c -  0.09  7 21 2   4  904  457 91% 18 33552 800 100%
c }  0.10  7 21 2   5 1000  524 91% 18 33552 800 100%
c [  0.10  7  0 2   5 1000  524  0% 0 33552 800 100%
c O  0.10  7 23 2   5 1003  525 90% 22 33552 800 100%
c -  0.15  7 22 3   5 1805  744 92% 19 33552 800 100%
c ]  0.21  7 23 3   6 3003 1621 92% 20 33552 800 100%
c {  0.21  7 21 3   6 3003 1621 91% 18 33552 800 100%
c F  0.21  7 21 3   6 3004 1622 91% 18 33552 800 100%
c -  0.22  7 21 4   6 3010 1132 91% 18 33552 800 100%
c -  0.31  7 21 5  26 4512 1266 91% 18 33552 800 100%
c #  0.42  7 21 5  34 6006 2280 91% 18 33552 800 100%
c -  0.45  7 21 6  38 6314 1607 91% 18 33552 800 100%
c }  0.48  7 21 6  43 7003 2085 91% 19 33552 800 100%
c [  0.48  7 23 6  43 7003 2085 92% 20 33552 800 100%
c -  0.55  7 25 7  44 8415 1982 92% 21 33552 800 100%
c I  0.62  7 25 7  45 10009 3122 92% 21 33552 800 100%
c s  0.72  8 72 7  46 10784 3742 91% 43 33552 800 100%
c 
c  seconds  reductions   redundant   irredundant
c         MB    restarts        trail      variables
c          level    conflicts       glue       remaining
c 
c s  0.78  8 72 7  46 10784 3725 91% 43 33552 800 100%
c ^  0.78  8 72 7  46 10784 3725 91% 43 33552 800 100%
c -  0.79  9 73 8  46 10816 2523 91% 44 33552 800 100%
c -  0.99 10 115 9  48 13517 3143 91% 66 33552 800 100%
c ]  1.12 10 123 9  48 15005 4492 90% 71 33552 800 100%
c {  1.12 10 21 9  48 15005 4492 91% 19 33552 800 100%
c B  1.12 10 21 9  49 15010 4497 91% 19 33552 800 100%
c -  1.20  8 21 10  76 16518 3207 92% 19 33552 800 100%
c -  1.37 10 21 11  93 19820 2927 91% 18 33552 800 100%
c W  1.45 10 21 11  96 21012 3725 91% 18 33552 800 100%
c -  1.56 10 21 12 150 23421 3063 91% 18 33552 800 100%
c -  1.74 10 21 13 196 27323 3135 91% 18 33552 800 100%
c F  1.77 10 21 13 210 28015 3513 91% 18 33552 800 100%
c }  1.94 10 21 13 234 31008 5439 91% 18 33552 800 100%
c [  1.94 10 123 13 234 31008 5439 90% 71 33552 800 100%
c -  1.97 11 118 14 234 31525 3644 90% 68 33552 800 100%
c s  2.03 11 111 14 234 32347 4186 91% 64 33552 800 100%
c s  2.10 11 111 14 234 32347 4165 91% 64 33552 800 100%
c ^  2.10 11 111 14 234 32347 4165 91% 64 33552 800 100%
c B  2.28 11 88 14 237 36016 6746 91% 53 33552 800 100%
c 
c  seconds  reductions    redundant   irredundant
c         MB     restarts        trail      variables
c          level     conflicts       glue       remaining
c 
c -  2.29 11 88 15 237 36025 4268 91% 53 33552 800 100%
c -  2.55 11 91 16 240 40825 5501 91% 54 33552 800 100%
c W  2.81 11 92 16 241 45018 9409 91% 55 33552 800 100%
c -  2.87 13 90 17 241 45928 6363 91% 54 33552 800 100%
c -  3.20 11 78 18 242 51330 6345 91% 48 33552 800 100%
c O  3.40 11 72 18 243 55019 9159 92% 45 33552 800 100%
c -  3.50 11 69 19 245 57031 6327 92% 44 33552 800 100%
c ]  3.78 11 62 19 249 63008 10298 92% 40 33552 800 100%
c {  3.78 11 21 19 249 63008 10298 91% 18 33552 800 100%
c -  3.79 11 21 20 251 63031 5788 91% 18 33552 800 100%
c s  3.89 11 21 20 286 64689 6648 91% 18 33552 800 100%
c s  3.96 11 21 20 286 64689 6417 91% 18 33552 800 100%
c ^  3.97 11 21 20 286 64689 6417 91% 18 33552 800 100%
c B  4.04 11 21 20 291 66020 7434 91% 18 33552 800 100%
c -  4.21 11 21 21 334 69332 5539 92% 18 33552 800 100%
c -  4.57 11 21 22 407 75932 5626 92% 18 33552 800 100%
c W  4.70 11 21 22 411 78023 7053 92% 18 33552 800 100%
c -  4.93 11 21 23 617 82833 5889 92% 19 33552 800 100%
c -  5.29 12 21 24 665 90033 6167 92% 18 33552 800 100%
c #  5.34 12 21 24 683 91024 6727 92% 18 33552 800 100%
c 
c  seconds  reductions    redundant   irredundant
c         MB     restarts        trail      variables
c          level     conflicts       glue       remaining
c 
c -  5.68 12 21 25 711 97535 6605 92% 18 33552 800 100%
c B  6.08 12 21 25 747 105026 11257 92% 18 33552 800 100%
c -  6.10 12 21 26 769 105335 6741 92% 18 33552 800 100%
c s  6.24 12 21 26 848 107812 7682 92% 18 33552 800 100%
c w  6.26 12 21 26 848 107812 7666 92% 18 33552 800 100%
c s  6.31 12 21 26 848 107812 7610 92% 18 33552 800 100%
c ^  6.31 12 21 26 848 107812 7610 92% 18 33552 800 100%
c -  6.59 12 21 27 903 113435 6635 92% 18 33552 800 100%
c W  6.94 12 21 27 961 120028 10340 92% 18 33552 800 100%
c -  7.04 12 21 28 981 121835 6619 92% 18 33552 800 100%
c }  7.29 12 21 28 1058 127008 9788 92% 18 33552 800 100%
c [  7.29 12 62 28 1058 127008 9788 92% 40 33552 800 100%
c -  7.47 12 58 29 1058 130537 7512 92% 38 33552 800 100%
c B  7.75 12 55 29 1062 136032 11885 92% 37 33552 800 100%
c -  7.94 13 52 30 1064 139537 9158 92% 36 33552 800 100%
c -  8.45 13 48 31 1066 148839 9455 92% 33 33552 800 100%
c W  8.70 13 46 31 1067 153034 12485 92% 33 33552 800 100%
c -  9.01 13 44 32 1067 158439 10122 92% 31 33552 800 100%
c s  9.19 13 43 32 1067 161716 12640 92% 31 33552 800 100%
c w  9.21 13 43 32 1067 161716 12625 92% 31 33552 800 100%
c 
c  seconds  reductions       redundant   irredundant
c         MB     restarts           trail      variables
c          level      conflicts         glue       remaining
c 
c s  9.27 13 43 32 1067 161716 12609 92% 31 33552 800 100%
c ^  9.27 13 43 32 1067 161716 12609 92% 31 33552 800 100%
c -  9.62 14 41 33 1067 168342 10322 92% 30 33552 800 100%
c I  9.77 14 41 33 1069 171037 12266 92% 30 33552 800 100%
c - 10.42 20 67 34 1074 178542 11786 91% 44 33552 800 100%
c - 11.26 19 74 35 1080 189046 12788 91% 48 33552 800 100%
c B 11.33 19 74 35 1081 190040 13582 91% 48 33552 800 100%
c - 12.03 16 87 36 1082 199848 13447 91% 54 33552 800 100%
c W 12.88 16 98 36 1088 210042 22980 91% 59 33552 800 100%
c - 12.98 22 98 37 1089 210951 14393 91% 60 33552 800 100%
c - 13.94 22 99 38 1095 222352 14898 91% 60 33552 800 100%
c s 14.36 22 98 38 1096 226400 18451 91% 60 33552 800 100%
c s 14.45 22 98 38 1096 226400 18432 91% 60 33552 800 100%
c O 14.81 22 95 38 1097 231043 22517 91% 59 33552 800 100%
c - 14.99 22 92 39 1097 234054 14430 91% 57 33552 800 100%
c - 15.62 22 83 40 1098 246054 12175 91% 52 33552 800 100%
c B 15.98 22 79 40 1099 253044 17602 91% 50 33552 800 100%
c ] 16.10 22 77 40 1099 255010 19140 91% 49 33552 800 100%
c { 16.10 22 21 40 1099 255010 19140 92% 18 33552 800 100%
c - 16.31 22 21 41 1153 258355 12411 92% 18 33552 800 100%
c 
c  seconds  reductions       redundant   irredundant
c         MB     restarts           trail      variables
c          level      conflicts         glue       remaining
c 
c - 16.98 22 21 42 1323 270955 11040 92% 18 33552 800 100%
c F 17.26 22 21 42 1395 276045 14187 92% 18 33552 800 100%
c - 17.65 22 21 43 1424 283855 11227 92% 18 33552 800 100%
c - 18.32 22 21 44 1502 297055 11915 92% 18 33552 800 100%
c B 18.47 22 21 44 1530 300047 13854 92% 18 33552 800 100%
c - 18.97 22 21 45 1729 310556 11351 92% 18 33552 800 100%
c - 19.66 22 21 46 1901 324357 11309 92% 18 33552 800 100%
c W 19.74 22 21 46 1905 325048 11791 92% 18 33552 800 100%
c - 20.42 22 21 47 2108 338457 11478 92% 18 33552 800 100%
c # 21.05 22 21 47 2239 351049 19371 92% 18 33552 800 100%
c - 21.14 22 21 48 2253 352857 12135 92% 18 33552 800 100%
c - 21.87 22 21 49 2556 367559 11845 92% 18 33552 800 100%
c B 22.40 22 21 49 2702 378052 18333 92% 18 33552 800 100%
c - 22.63 22 21 50 2731 382559 12341 92% 18 33552 800 100%
c - 23.44 22 21 51 2818 397860 12566 92% 18 33552 800 100%
c W 23.93 22 21 51 2942 406054 17881 92% 18 33552 800 100%
c - 24.31 22 21 52 3046 413461 13124 92% 18 33552 800 100%
c - 25.13 22 21 53 3161 429361 13885 92% 18 33552 800 100%
c F 25.43 22 21 53 3218 435057 17266 92% 18 33552 800 100%
c - 25.96 22 21 54 3280 445564 14128 92% 18 33552 800 100%
c 
c  seconds  reductions       redundant   irredundant
c         MB     restarts           trail      variables
c          level      conflicts         glue       remaining
c 
c - 26.82 22 21 55 3360 462065 14379 92% 18 33552 800 100%
c B 26.98 22 21 55 3387 465058 16359 92% 18 33552 800 100%
c - 27.66 22 21 56 3563 478868 14417 92% 18 33552 800 100%
c - 28.54 22 21 57 3781 495968 14746 92% 18 33552 800 100%
c W 28.61 22 21 57 3781 496059 14785 92% 18 33552 800 100%
c } 29.36 22 21 57 3895 511012 24503 92% 18 33552 800 100%
c [ 29.36 22 77 57 3895 511012 24503 91% 49 33552 800 100%
c - 29.49 22 76 58 3895 513368 15077 91% 49 33552 800 100%
c W 30.41 22 68 58 3895 528062 26403 91% 44 33552 800 100%
c - 30.59 22 66 59 3895 531068 17787 91% 44 33552 800 100%
c - 31.69 22 59 60 3901 549068 19091 91% 40 33552 800 100%
c I 32.46 22 55 60 3907 561068 27591 91% 38 33552 800 100%
c - 33.01 29 72 61 3909 567369 20472 91% 46 33552 800 100%
c - 34.82 33 97 62 3917 585970 22960 91% 59 33552 800 100%
c B 35.61 33 96 62 3923 595069 31047 91% 59 33552 800 100%
c - 36.37 30 101 63 3925 604870 23526 91% 61 33552 800 100%
c s 36.43 30 101 63 3925 604870 23019 91% 61 33552 800 100%
c w 36.50 30 101 63 3925 604870 22972 91% 61 33552 800 100%
c - 37.82 22 90 64 3926 624070 22310 91% 55 33552 800 100%
c W 38.29 22 87 64 3929 630071 27308 91% 53 33552 800 100%
c 
c  seconds  reductions       redundant   irredundant
c         MB     restarts           trail      variables
c          level      conflicts         glue       remaining
c 
c - 39.24 26 79 65 3937 643573 21994 91% 49 33552 800 100%
c - 40.42 26 71 66 3944 663373 21854 91% 45 33552 800 100%
c O 40.58 26 70 66 3946 666077 24038 91% 45 33552 800 100%
c - 41.85 26 62 67 3955 683477 21278 92% 41 33552 800 100%
c B 43.00 26 58 67 3957 703082 36606 92% 39 33552 800 100%
c - 43.07 30 57 68 3957 703879 22393 92% 39 33552 800 100%
c - 44.49 30 52 69 3958 724579 22104 92% 37 33552 800 100%
c W 45.63 30 49 69 3958 741087 33937 92% 35 33552 800 100%
c - 45.93 30 48 70 3959 745582 22540 92% 34 33552 800 100%
c - 47.29 30 45 71 3959 766883 23320 92% 33 33552 800 100%
c I 48.13 31 43 71 3959 780088 33250 92% 32 33552 800 100%
c - 48.91 40 67 72 3959 788485 24773 92% 43 33552 800 100%
c - 51.40 58 119 73 3959 810385 27814 91% 68 33552 800 100%
c B 52.35 58 133 73 3966 820089 36883 91% 76 33552 800 100%
c - 53.05 40 122 74 3973 832585 26311 91% 70 33552 800 100%
c - 54.47 40 103 75 3981 855085 23875 91% 61 33552 800 100%
c ] 54.89 40 99 75 3984 861090 28241 92% 59 33552 800 100%
c 1 54.89 40 99 75 3984 861090 28241 92% 59 33552 800 100%
c 
c --- [ result ] -------------------------------------------------------------
c 
s SATISFIABLE
v -1 -2 -3 -4 -5 -6 -7 -8 -9 -10 -11 -12 -13 -14 -15 -16 -17 -18 -19 -20 -21
v 22 -23 -24 -25 -26 -27 -28 -29 -30 -31 -32 33 -34 -35 -36 -37 -38 -39 -40 41
v -42 -43 -44 -45 -46 -47 -48 -49 -50 -51 52 -53 -54 -55 -56 -57 -58 -59 -60
v -61 -62 -63 -64 65 -66 -67 -68 -69 -70 -71 -72 -73 -74 -75 -76 -77 -78 -79
v -80 -81 -82 -83 -84 -85 -86 -87 -88 -89 -90 -91 -92 -93 -94 -95 -96 -97 -98
v -99 -100 -101 -102 -103 -104 -105 -106 -107 108 -109 -110 -111 -112 -113
v -114 -115 -116 -117 118 -119 -120 -121 -122 -123 -124 -125 -126 -127 -128
v -129 -130 131 -132 -133 -134 -135 -136 -137 -138 -139 -140 -141 -142 -143
v -144 -145 -146 -147 -148 -149 -150 -151 -152 -153 -154 -155 -156 -157 -158
v -159 -160 -161 -162 -163 -164 -165 -166 -167 -168 -169 -170 -171 -172 -173
v -174 -175 -176 -177 -178 -179 -180 -181 -182 -183 -184 -185 -186 -187 -188
v -189 -190 -191 -192 -193 194 -195 -196 -197 -198 -199 -200 -201 -202 -203
v -204 -205 -206 -207 -208 -209 -210 -211 212 -213 -214 -215 216 -217 -218
v -219 -220 -221 -222 -223 -224 225 -226 -227 -228 -229 -230 -231 -232 -233
v -234 -235 -236 -237 -238 239 -240 -241 -242 -243 -244 -245 -246 -247 -248
v -249 -250 -251 252 -253 -254 -255 -256 -257 -258 259 -260 -261 -262 -263
v -264 -265 -266 -267 -268 -269 -270 -271 -272 273 274 -275 -276 -277 -278
v -279 -280 -281 -282 -283 -284 285 -286 -287 -288 -289 290 -291 -292 -293
v -294 -295 -296 -297 -298 -299 -300 -301 -302 -303 -304 -305 -306 -307 -308
v -309 -310 -311 -312 -313 -314 -315 -316 -317 -318 -319 -320 -321 -322 -323
v -324 -325 -326 -327 -328 -329 -330 -331 -332 -333 -334 -335 -336 -337 -338
v -339 -340 -341 -342 -343 -344 -345 -346 -347 -348 -349 -350 -351 -352 -353
v -354 -355 -356 -357 -358 -359 -360 -361 -362 -363 -364 -365 -366 -367 -368
v -369 -370 -371 -372 -373 -374 -375 -376 -377 378 -379 -380 -381 -382 -383
v -384 -385 -386 -387 -388 -389 -390 -391 -392 393 -394 -395 -396 -397 -398
v -399 -400 -401 -402 -403 -404 -405 -406 -407 -408 -409 -410 -411 -412 -413
v -414 -415 -416 -417 -418 -419 -420 -421 -422 -423 -424 -425 -426 -427 -428
v -429 -430 -431 432 -433 -434 435 -436 -437 -438 -439 -440 -441 -442 -443
v -444 -445 -446 -447 -448 -449 -450 -451 -452 -453 -454 -455 -456 -457 -458
v -459 -460 -461 -462 -463 -464 -465 -466 -467 -468 -469 -470 -471 -472 -473
v -474 -475 -476 -477 -478 -479 -480 -481 -482 -483 -484 -485 486 -487 -488
v -489 -490 -491 -492 -493 -494 -495 -496 -497 -498 -499 -500 -501 -502 -503
v -504 505 -506 -507 -508 -509 -510 -511 -512 -513 -514 -515 -516 -517 -518
v -519 -520 -521 -522 -523 -524 -525 -526 -527 -528 -529 -530 -531 -532 533
v -534 -535 -536 -537 -538 -539 -540 -541 -542 -543 -544 -545 -546 -547 -548
v -549 -550 -551 -552 -553 -554 -555 -556 -557 -558 -559 -560 -561 -562 -563
v -564 -565 -566 -567 -568 -569 -570 -571 -572 -573 -574 -575 -576 -577 -578
v -579 -580 -581 -582 -583 -584 -585 -586 -587 588 -589 -590 -591 -592 -593
v -594 -595 -596 -597 -598 -599 -600 -601 -602 -603 -604 -605 -606 -607 -608
v -609 -610 -611 -612 -613 -614 -615 -616 -617 -618 -619 -620 -621 -622 -623
v -624 -625 626 627 -628 629 -630 -631 -632 -633 -634 -635 -636 -637 -638 -639
v 640 -641 -642 -643 -644 645 -646 -647 -648 -649 -650 -651 -652 -653 -654
v -655 656 -657 -658 -659 -660 -661 -662 -663 -664 -665 -666 -667 -668 -669
v -670 -671 -672 -673 -674 -675 -676 -677 -678 -679 -680 -681 -682 -683 -684
v -685 -686 -687 -688 -689 -690 -691 -692 -693 -694 -695 -696 -697 -698 -699
v -700 701 -702 -703 704 -705 -706 -707 -708 709 -710 711 712 -713 -714 -715
v -716 -717 -718 -719 -720 -721 722 -723 -724 -725 -726 -727 -728 -729 730
v -731 732 -733 -734 -735 736 -737 -738 -739 -740 -741 -742 -743 -744 -745
v -746 -747 -748 -749 -750 -751 -752 -753 -754 -755 756 -757 -758 -759 -760
v -761 -762 -763 -764 765 -766 -767 -768 -769 -770 771 -772 -773 -774 -775
v -776 -777 -778 -779 780 -781 782 -783 -784 -785 -786 -787 -788 -789 -790
v -791 -792 -793 -794 -795 -796 -797 -798 -799 -800 0
c 
c --- [ run-time profiling ] -------------------------------------------------
c 
c process time taken by individual solving procedures
c (percentage relative to process time for solving)
c 
c        53.55   97.61% search
c        35.48   64.66% stable
c        17.30   31.52% unstable
c         1.31    2.39% simplify
c         0.78    1.42% walk
c         0.46    0.84% probe
c         0.29    0.53% subsume
c         0.18    0.33% vivify
c         0.10    0.19% elim
c         0.07    0.13% ternary
c         0.02    0.04% parse
c         0.00    0.01% lucky
c   =================================
c        54.87   99.96% solve
c 
c last line shows process time for solving
c (percentage relative to total process time)
c 
c --- [ statistics ] ---------------------------------------------------------
c 
c chronological:            180482        20.96 %  of conflicts
c conflicts:                861090     15694.10    per second
c decisions:               1030326     18778.57    per second
c learned:                  839770        97.52 %  per conflict
c learned_lits:          122919470       100.00 %  learned literals
c minimized:                     0         0.00 %  learned literals
c shrunken:               81510114        66.31 %  learned literals
c minishrunken:            3068863         2.50 %  learned literals
c otfs:                       1766         0.21 %  of conflict
c propagations:           42149643         0.77 M  per second
c reduced:                  600593        69.75 %  per conflict
c rephased:                     41     21002.20    interval
c restarts:                   3984       216.14    interval
c stabilizing:                   5        60.39 %  of conflicts
c subsumed:                 210908        24.15 %  of all clauses
c strengthened:              15622         1.79 %  of all clauses
c trail reuses:                  0         0.00 %  of incremental calls
c vivified:                    111         0.01 %  of all clauses
c walked:                       13     66237.69    interval
c 
c seconds are measured in process time for solving
c 
c --- [ resources ] ----------------------------------------------------------
c 
c total process time since initialization:        54.89    seconds
c total real time since initialization:           54.89    seconds
c maximum resident set size of process:           58.00    MB
c 
c --- [ shutting down ] ------------------------------------------------------
c 
c exit 10
